125
[12,13,14,15,16,17,18,19,20,21,22,23,24,25,26,27,28,29,30,31,32,33,34,35,36,37,38,39,40,41,42,43,44,45,46,47,48,50,51,52,53,54,55,56,57,58,59,60,61,62,63,64,65,66,67,68,69,70,71,72,73,74,75,76,77,78,79,80,81,82,83,84,85,86,87]
[1,7,1,4,3,3,5,5,3,4,3,2,6,3,5,2,5,4,3,5,2,6,2,6,5,5,2,3,4,4,5,5,1,4,5,5,3,5,6,4,3,5,2,4,5,4,6,5,9,2,7,4,7,2,1,6,2,3,6,2,5,3,4,4,6,1,4,4,1,5,2,3,8,4,5]
